c CNF generator v0.9
p cnf 50 50
-6 34 -13 0
4 22 -45 0
25 19 27 0
-1 46 50 0
-2 -10 -12 0
-31 4 1 0
-39 9 -41 0
-3 37 -43 0
-14 -46 -44 0
-35 -10 -10 0
-49 27 -50 0
41 33 -9 0
-11 6 -17 0
40 -35 3 0
42 14 41 0
32 -49 49 0
-17 -15 -3 0
-49 43 49 0
39 -17 -2 0
36 21 -34 0
-13 -48 49 0
-40 -18 -25 0
-45 -4 47 0
-26 -2 -48 0
23 -48 44 0
15 -32 5 0
25 29 43 0
12 31 -43 0
-5 -33 31 0
14 38 15 0
-48 38 -38 0
32 38 47 0
20 42 -1 0
39 -49 -24 0
39 36 44 0
-8 15 29 0
7 -15 43 0
31 28 48 0
48 -35 -48 0
-45 -46 39 0
-11 6 25 0
44 -1 12 0
6 9 21 0
30 -35 -32 0
15 -2 -30 0
9 -9 37 0
-4 12 22 0
19 -14 -28 0
48 -8 -10 0
8 24 49 0
